# created by fftool

units real
boundary p p p

atom_style full
bond_style harmonic
angle_style harmonic
dihedral_style opls

special_bonds lj/coul 0.0 0.0 0.5

# remove hybrid if not necessary
pair_style hybrid lj/cut/coul/long 12.0 12.0
pair_modify tail yes
kspace_style pppm 1.0e-5

read_data data.lmp

include pair.lmp

minimize 1.0e-4 1.0e-6 1000 10000

#fix SHAKE all shake 0.0001 20 0 b 7 8 9 10 11 12 13 14 19 a 31

#neighbor 2.0 bin

timestep 1.0
thermo   10

thermo_style custom step cpu etotal ke pe evdwl ecoul elong temp press vol density
thermo_modify line multi

dump d1 all custom 1000 dump_min.lammpstrj id mol type element q xu yu zu
dump_modify d1 element C C O C O O C H H H H H H H H Li C F S N O H O
undump    d1

write_data data.min.lmp
