# created by fftool

units real
boundary p p p

atom_style full
bond_style harmonic
angle_style harmonic
dihedral_style opls

special_bonds lj/coul 0.0 0.0 0.5

#remove hybrid if not necessary
pair_style hybrid lj/cut/coul/long 12.0 12.0
pair_modify tail yes
kspace_style pppm 1.0e-5

read_data data.nvte.lmp

include pair.lmp

#minimize 1.0e-4 1.0e-6 1000 10000

fix SHAKE all shake 0.0001 20 0 b 7 8 9 10 11 12 13 14 19 a 31

neighbor  2.0 bin
neigh_modify every 2 delay 10 check yes

timestep 0.5
run_style verlet

group     water     type 22 23
group     EMC       type 1 2 3 4 5 6 7 8 9 10 11 12 13 14 15
group     TFSI      type 17 18 19 20 21
group     Lithium   type 16

thermo   2000
thermo_style custom step cpu etotal ke pe evdwl ecoul elong temp press
thermo_modify lost ignore
#thermo_modify line multi

#----------RDF calculation------------
compute myRDF1 all rdf 200 16 23 16 22 16 1 16 2 16 3 16 4 16 5 16 6 16 7 16 8 16 17 16 18 16 19 16 20 16 21
#rdf: Li-Ow, Li-Hw, Li-C00, Li-C01, Li-O02, Li-C03, Li-O04, Li-O05, Li-C06, Li-H07, Li-CBT, Li-F1, Li-SBT, Li-NBT, Li-OBT
fix    rdf1data all ave/time 100 200000 20000000 c_myRDF1[*] file rdf.dat mode vector

compute myRDF2 all rdf 200 16 16 23 23 20 20 21 21 3 3 5 5  
#rdf: Li-Li, Ow-Ow, NBT-NBT, OBT-OBT, O02-O02, O04-O04
fix    rdf2data all ave/time 100 200000 20000000 c_myRDF2[*] file rdf-self.dat mode vector

dump		d1 all custom 1000 system.nvte.lammpstrj id mol type q xu yu zu x vy vz
dump_modify d1 element C C O C O O C H H H H H H H H Li C F S N O H O
fix f1 all nvt temp 300.0 300.0 100.0
restart		5000000 data.npt.*.restart
run		20000000
unfix		f1
undump		d1


write_data data.nvtp.lmp
