# created by fftool

units real
boundary p p p

atom_style full
bond_style harmonic
angle_style harmonic
dihedral_style opls

special_bonds lj/coul 0.0 0.0 0.5

# remove hybrid if not necessary
pair_style hybrid lj/cut/coul/long 12.0 12.0
pair_modify tail yes
kspace_style pppm 1.0e-5

read_data data.lmp

include pair-drude.lmp
include pair.lmp
include pair-tt.lmp

minimize 1.0e-4 1.0e-6 1000 10000

#neighbor 2.0 bin

timestep 1.0
thermo   10

thermo_style custom step cpu etotal ke pe ebond eangle evdwl ecoul elong press density  vol temp 
thermo 1000

dump d1 all custom 1000 dump_min.lammpstrj id mol type element q xu yu zu
dump_modify TRAJ element O H Mw C F S O N O Li  D D D D D D D D sort id
undump    d1

write_data data.min.lmp
