# create by fftool

units real
dimension 3
boundary p p p

atom_style full
bond_style harmonic
angle_style harmonic
dihedral_style opls

special_bonds lj/coul 0.0 0.0 0.5

# remove hybrid if not necessary
pair_style hybrid lj/cut/coul/long 12.0 12.0
pair_modify tail yes
kspace_style pppm 1.0e-5

read_data data.nvtp.lmp

include pair.lmp

#minimize 1.0e-4 1.0e-6 100 1000

fix SHAKE all shake 0.0001 20 0 b 5 6 7 8 9 10 11 16 a 26

neighbor 2.0 bin
neigh_modify delay 0 every 1 check yes

timestep   0.5
run_style  verlet

group      water   type 19 20
group      NMA     type 1 2 3 4 5 6 7 8 9 10 11 12
group      TFSI    type 14 15 16 17 18 
group      Lithium type 13

reset_timestep 0

#------------Output command--------

variable     T equal 300.00
variable     d equal 2000
variable     atm2Pa equal 101325.0

#variable     pxy equal pxy*${atm2Pa}u
#variable     pxz equal pxz*${atm2Pa}
#variable     pyz equal pyz*${atm2Pa}
#variable     pxx equal pxx*${atm2Pa}
#variable     pyy equal pyy*${atm2Pa}
#variable     pzz equal pzz*${atm2Pa}

thermo_style custom step cpu etotal ke pe evdwl ecoul elong temp press
thermo_modify lost ignore
thermo $d
#thermo_modify line multi

#----------RDF calculation-------------
compute myRDF1 all rdf 200 13 20 13 19 13 14 13 15 13 16 13 17 13 18 13 1 13 2 13 3 13 4 13 5 13 6 13 9
#rdf: Li-Ow, Li-Hw, Li-CBT, Li-F1, Li-SBT, Li-NBT, Li-OBT, Li-C00, Li-N01, Li-C02, Li-C03, Li-O04, Li-H05, Li-H08
fix    rdf all ave/time 100 20000 2000000 c_myRDF1[*] file rdf.dat mode vector

#compute myRDF2 all rdf 200 13 13 20 20 17 17 2 2
#rdf: Li-Li, Ow-Ow, NBT-NBT, N01-N01
#fix    2 all ave/time 100 20000 2000000 c_myRDF2 file rdf-self.dat mode vector


dump d1 all custom 1000 system.nvtp.lammpstrj id mol type q xu yu zu vx vy vz
dump_modify d1 element C N C C O H H H H H H H Li C F S N O H O
fix             f1 all nvt temp $T $T 100.0
restart         500000  data.nvte.*.restart
run             1000000
unfix           f1
undump          d1

write_data      data.nvtp_1.lmp
